cliques=[{25,62,0,12,70},{13,63,1,34,72,56,19,78},{6,42,2,79,27},{45,81,9,17,67,3,37,22,58},{5,6,4,8,11,9,7,10},{5,6,4,8,11,9,7,10},{5,6,4,8,11,9,7,10},{5,6,4,8,11,9,7,10},{5,6,4,8,11,9,7,10},{5,6,4,8,11,9,7,10},{5,6,4,8,11,9,7,10},{5,6,4,8,11,9,7,10},{14,13,15,16,17,12},{14,13,15,16,17,12},{14,35,83,49,28,20,73,64},{14,13,15,16,17,12},{14,13,15,16,17,12},{45,81,9,17,67,3,37,22,58},{4,77,24,53,39,18,60,69},{13,63,1,34,72,56,19,78},{14,35,83,49,28,20,73,64},{8,43,15,29,36,50,74,66,21,85},{45,81,9,17,67,3,37,22,58},{86,52,75,68,59,23,38,10,31},{4,77,24,53,39,18,60,69},{25,24,28,29,26,27,32,31,30},{5,33,26,55,41,48,71},{25,24,28,29,26,27,32,31,30},{14,35,83,49,28,20,73,64},{25,24,28,29,26,27,32,31,30},{25,24,28,29,26,27,32,31,30},{25,24,28,29,26,27,32,31,30},{25,24,28,29,26,27,32,31,30},{5,33,26,55,41,48,71},{13,63,1,34,72,56,19,78},{14,35,83,49,28,20,73,64},{8,43,15,29,36,50,74,66,21,85},{45,81,9,17,67,3,37,22,58},{86,52,75,68,59,38,23,10,31},{4,77,24,53,39,18,60,69},{45,43,40,42,39,41,44,46},{5,33,26,55,41,48,71},{45,43,40,42,39,41,44,46},{45,43,40,42,39,41,44,46},{45,43,40,42,39,41,44,46},{45,81,9,17,67,3,37,22,58},{45,43,40,42,39,41,44,46},{54,47,82,61,40},{5,33,26,55,41,48,71},{14,35,83,49,28,20,73,64},{8,43,15,29,36,50,74,66,21,85},{51,47,49,52,50,48},{86,52,75,68,59,38,23,10,31},{4,77,24,53,39,18,60,69},{54,47,82,61,40},{5,33,26,55,41,48,71},{54,53,57,59,55,56,58},{54,53,57,59,55,56,58},{45,81,9,17,67,3,37,22,58},{86,52,75,68,59,38,23,10,31},{4,77,24,53,39,18,60,69},{54,47,82,61,40},{62,61,65,63,67,68,60,66,64},{62,61,65,63,67,68,60,66,64},{14,35,83,49,28,20,73,64},{62,61,65,63,67,68,60,66,64},{62,61,65,63,67,68,60,66,64},{45,81,9,17,67,3,37,22,58},{62,61,65,63,68,67,60,66,64},{4,77,24,53,39,18,60,69},{25,62,0,12,70},{5,33,26,55,41,48,71},{13,63,1,34,72,56,19,78},{14,35,83,49,28,20,73,64},{8,43,15,29,36,50,74,66,21,85},{86,52,75,68,59,38,23,10,31},{73,75,76,70,74,72,69,71},{4,77,24,53,39,18,60,69},{81,77,80,79,78},{6,42,2,79,27},{81,77,80,79,78},{45,81,9,17,67,3,37,22,58},{54,47,82,61,40},{14,35,83,49,28,20,73,64},{86,83,82,85,84},{8,43,15,29,36,50,74,66,21,85},{86,52,75,68,59,38,23,10,31}];
nr_cliques=87;
